========================================================== 
File name: C:\DEGR\assets\definitions\MSRCPSP_Gen\100_40_512_10_B.def
Creation date: Wed May 03 10:44:18 CEST 2023
Website: http://imopse.ii.pwr.edu.pl/ 
Reference: 
Myszkowski P. B., Skowronski M. E., Olech L., Oslizlo K., 
Hybrid Ant Colony Optimization in solving Multi-Skill Resource-Constrained Project Scheduling Problem, 
Soft Computing, DOI: DOI 10.1007/s00500-014-1455-x 
========================================================== 
General characteristics: 
Tasks: 100
Resources: 40
Precedence relations: 486
Number of skill types: 10
========================================================== 
ResourceID 	 Salary 	 Skills 
1	 	 	85.0	 	 Q9: 0 	  Q7: 0 	  Q0: 1 	  Q4: 2 	  Q5: 3 	  Q1: 1 	 
2	 	 	64.1	 	 Q8: 2 	  Q2: 1 	  Q3: 0 	  Q9: 3 	  Q1: 3 	 
3	 	 	23.0	 	 Q6: 1 	  Q8: 1 	  Q1: 3 	  Q3: 3 	  Q4: 2 	 
4	 	 	55.7	 	 Q3: 1 	  Q1: 3 	  Q9: 1 	 
5	 	 	58.2	 	 Q4: 3 	  Q5: 1 	  Q3: 1 	  Q1: 1 	  Q0: 1 	  Q8: 1 	  Q9: 0 	  Q7: 0 	 
6	 	 	98.7	 	 Q3: 0 	  Q6: 2 	  Q7: 3 	 
7	 	 	54.7	 	 Q9: 1 	  Q2: 3 	  Q4: 1 	  Q3: 0 	  Q5: 2 	  Q7: 0 	  Q8: 0 	  Q0: 3 	  Q1: 2 	 
8	 	 	53.8	 	 Q4: 2 	  Q0: 0 	  Q3: 2 	  Q1: 2 	 
9	 	 	71.5	 	 Q1: 1 	  Q5: 0 	  Q0: 0 	  Q6: 2 	  Q7: 2 	  Q8: 1 	  Q3: 1 	  Q2: 1 	 
10	 	 	74.6	 	 Q4: 1 	  Q5: 2 	  Q2: 1 	 
11	 	 	16.5	 	 Q4: 2 	  Q5: 1 	  Q9: 3 	  Q2: 2 	  Q6: 2 	  Q1: 2 	  Q8: 2 	 
12	 	 	12.5	 	 Q7: 0 	  Q0: 1 	  Q1: 2 	  Q8: 3 	  Q4: 3 	  Q5: 0 	  Q6: 1 	  Q2: 0 	  Q3: 2 	 
13	 	 	84.0	 	 Q7: 2 	  Q9: 1 	  Q1: 0 	  Q3: 1 	  Q4: 1 	  Q2: 1 	  Q8: 1 	  Q5: 3 	  Q6: 2 	 
14	 	 	66.6	 	 Q4: 2 	  Q8: 2 	  Q6: 1 	 
15	 	 	44.1	 	 Q8: 3 	  Q6: 3 	  Q4: 0 	  Q2: 3 	  Q1: 1 	 
16	 	 	90.0	 	 Q6: 2 	  Q2: 0 	  Q9: 0 	 
17	 	 	86.7	 	 Q1: 0 	  Q7: 2 	  Q3: 1 	  Q2: 1 	  Q4: 2 	 
18	 	 	66.1	 	 Q5: 2 	  Q1: 2 	  Q6: 0 	  Q0: 0 	  Q2: 3 	  Q8: 0 	  Q3: 0 	 
19	 	 	49.8	 	 Q8: 2 	  Q0: 2 	  Q9: 3 	 
20	 	 	32.8	 	 Q0: 1 	  Q2: 1 	  Q8: 3 	  Q4: 0 	 
21	 	 	21.4	 	 Q5: 2 	  Q7: 3 	  Q6: 1 	  Q2: 0 	  Q8: 0 	  Q0: 3 	  Q9: 2 	 
22	 	 	19.1	 	 Q7: 2 	  Q9: 0 	  Q1: 1 	 
23	 	 	59.5	 	 Q1: 1 	  Q5: 2 	  Q4: 1 	  Q2: 1 	  Q9: 2 	 
24	 	 	22.9	 	 Q2: 1 	  Q8: 3 	  Q4: 0 	  Q7: 0 	 
25	 	 	89.6	 	 Q4: 3 	  Q8: 1 	  Q2: 1 	  Q5: 1 	  Q3: 2 	  Q9: 3 	  Q6: 3 	 
26	 	 	72.5	 	 Q3: 3 	  Q7: 3 	  Q6: 3 	  Q2: 3 	  Q0: 2 	  Q9: 1 	 
27	 	 	15.1	 	 Q2: 2 	  Q4: 1 	 
28	 	 	82.4	 	 Q7: 3 	  Q6: 3 	  Q1: 3 	 
29	 	 	95.3	 	 Q1: 3 	  Q2: 1 	  Q9: 3 	  Q3: 3 	  Q6: 3 	  Q8: 0 	  Q5: 1 	 
30	 	 	29.8	 	 Q5: 3 	  Q3: 1 	 
31	 	 	25.3	 	 Q9: 0 	  Q3: 2 	  Q8: 3 	  Q1: 3 	  Q6: 0 	  Q7: 0 	  Q2: 1 	  Q0: 1 	  Q5: 0 	 
32	 	 	21.1	 	 Q1: 3 	  Q6: 1 	  Q7: 1 	  Q2: 1 	  Q9: 3 	  Q0: 1 	 
33	 	 	25.6	 	 Q9: 2 	  Q3: 0 	  Q8: 2 	 
34	 	 	29.2	 	 Q8: 1 	  Q9: 3 	  Q5: 3 	  Q3: 2 	  Q7: 2 	  Q0: 0 	  Q2: 0 	  Q6: 2 	  Q1: 0 	 
35	 	 	22.1	 	 Q6: 2 	  Q4: 1 	 
36	 	 	46.1	 	 Q1: 2 	  Q4: 1 	  Q8: 1 	  Q5: 1 	  Q7: 1 	  Q0: 1 	  Q6: 2 	  Q9: 0 	 
37	 	 	90.4	 	 Q2: 2 	  Q8: 3 	  Q1: 0 	  Q7: 1 	  Q4: 1 	 
38	 	 	52.2	 	 Q5: 0 	  Q8: 3 	  Q3: 0 	 
39	 	 	30.4	 	 Q4: 2 	  Q1: 0 	  Q9: 3 	 
40	 	 	52.5	 	 Q8: 3 	  Q1: 0 	  Q2: 1 	  Q0: 0 	  Q6: 0 	  Q5: 1 	  Q3: 1 	  Q9: 1 	 
========================================================== 
TaskID 	 Duration 	 Skill 	 Predecessor IDs 
1	16	Q5:	1
2	38	Q6:	1
3	16	Q9:	1
4	29	Q5:	2
5	24	Q2:	1
6	31	Q1:	3	3
7	36	Q8:	1
8	20	Q4:	2	5	3	4	2
9	23	Q4:	0
10	40	Q0:	1	9
11	28	Q3:	2	8
12	30	Q9:	3	4	7	8
13	29	Q5:	0	10
14	19	Q8:	0	11	2
15	39	Q5:	1	6	7
16	34	Q2:	3	2
17	27	Q4:	0	3	6	9	14
18	40	Q7:	1	15
19	22	Q4:	0	17	3	10
20	39	Q7:	2	5	11
21	23	Q4:	3	1	12
22	11	Q8:	1
23	10	Q1:	1	21
24	19	Q7:	0	14	2
25	39	Q0:	2	6	13	1
26	27	Q9:	1	23
27	11	Q4:	3	20	13	22
28	23	Q5:	3	17	18	22	23	15	8	1
29	28	Q2:	0	26	17
30	38	Q6:	1	17
31	11	Q0:	1	18	2	22
32	38	Q6:	0	5
33	36	Q3:	3	12	18	26	4	5
34	16	Q4:	0	17	8	5	3	11
35	23	Q8:	2	24	29	5
36	28	Q1:	0	9	11	24
37	17	Q6:	0	20	21	24	19	11	2
38	36	Q9:	1	4	23	12
39	20	Q8:	1	4	17	26
40	24	Q1:	3	2	31	24	6	10
41	36	Q1:	2	2	25
42	37	Q9:	2	40	2
43	33	Q5:	2	36	34	1	11	32	33
44	17	Q9:	3	6	37	40
45	33	Q3:	3	43	25	38	40	15
46	22	Q1:	3	29	31	30	41	6
47	40	Q5:	1	15	1	3
48	24	Q5:	2	31	13	4	9	47	37
49	20	Q1:	2	25	38	45	24	27	30	19	28	35	33
50	22	Q2:	2	41	47	43	25	1
51	25	Q6:	3	48	19	21	31	13
52	32	Q9:	3	11	50	44	2	46
53	33	Q6:	1	49	33
54	26	Q8:	1	29	40	25	32	44
55	9	Q1:	3	37	11	38	51	48
56	29	Q7:	0	54	41	1	2	14
57	32	Q3:	0	9	43	20	10	34	21	3	6	17	36	53
58	18	Q4:	0	42	9	4	16
59	34	Q4:	3	27	42	12	20	37	1	53	26
60	37	Q2:	3	1	3	41	21	4	26	43
61	21	Q4:	0	34	40	8	45	25
62	25	Q7:	2	10	2	56	36	23	61	53
63	26	Q0:	2	50	33	57	45	13	44	21
64	19	Q1:	0	56	13	35	43	7	51
65	16	Q2:	2	55	3	24	39	28
66	37	Q0:	0	35	2	48	7
67	38	Q7:	1	45	59	38	44	20	8
68	29	Q6:	0	23	19	20	37
69	40	Q0:	1	62	5	14	41
70	17	Q6:	2	5	16	48	29	24
71	23	Q3:	3	57	56	3	35	13	53
72	17	Q6:	0	6	58	56	8	9	13	67	57
73	9	Q3:	3	39	47
74	17	Q4:	1	61	20	26	6	51	42	65	15	46
75	36	Q1:	1	18	58	14	3	23
76	29	Q8:	2	14	34	41	29	9	26	74	5	15	38	51
77	35	Q6:	2	32	24	52	74	54	36	35
78	16	Q6:	1	66	61	26	72	60	57	17	73	33	48	77	6
79	28	Q8:	0	39	29	5	45	28	57	23	6
80	18	Q6:	3	53	33	23	68	46	17	19
81	18	Q5:	3	7	36	74	65	47	55	61	50
82	24	Q3:	0	25	47	54	49	33
83	17	Q7:	2	52	6	11	53	69	7	30	36	68	29	13	59	51
84	17	Q9:	3	55	45	68	43	73	69	17	66
85	25	Q2:	1	45	73	17	2	34	82
86	33	Q0:	3	75	13	33	55	39	80
87	17	Q7:	3	4	33	49	2	10	17	57	50	51	13
88	11	Q8:	1	43	37	62	84	86	12	38	21	66	48
89	36	Q3:	1	60	21	51	7	52	64	4	80
90	32	Q1:	2	75	52	63	60	31	32	39	74	71	69	18
91	36	Q9:	0	32	38	52	63	49	54	47	31
92	31	Q1:	1	30	68	79	77	5	19	91
93	17	Q8:	0	48	23	54	84	53	77	22	86	55	29	36	51
94	31	Q5:	1	93	25	45	2	54	65	4	39	79	78
95	34	Q2:	0	60	91	31	2
96	18	Q4:	1	62	36	80	1	91	46	77
97	32	Q1:	0	50	19	60	11	40	13	1	12
98	27	Q7:	3	19	66	54	37	91	13	69	15	90	50	7	36	17
99	35	Q6:	2	86	27	70	35	61	65
100	33	Q0:	2	52	85	27	30	57	6	54	78	38
========================================================== 